c colouring generated by benchmark framework
p edge 211 3541
v 1 1
v 2 0
v 3 7
v 4 15
v 5 14
v 6 13
v 7 12
v 8 10
v 9 9
v 10 8
v 11 6
v 12 5
v 13 3
v 14 4
v 15 11
v 16 2
v 17 0
v 18 19
v 19 18
v 20 14
v 21 12
v 22 11
v 23 5
v 24 4
v 25 3
v 26 2
v 27 1
v 28 10
v 29 9
v 30 6
v 31 7
v 32 8
v 33 25
v 34 0
v 35 0
v 36 16
v 37 0
v 38 0
v 39 0
v 40 0
v 41 19
v 42 0
v 43 18
v 44 0
v 45 21
v 46 0
v 47 17
v 48 24
v 49 0
v 50 0
v 51 20
v 52 0
v 53 0
v 54 17
v 55 0
v 56 26
v 57 24
v 58 0
v 59 22
v 60 23
v 61 22
v 62 15
v 63 15
v 64 13
v 65 13
v 66 13
v 67 13
v 68 16
v 69 15
v 70 16
v 71 16
v 72 16
v 73 16
v 74 16
v 75 16
v 76 16
v 77 16
v 78 16
v 79 20
v 80 16
v 81 17
v 82 16
v 83 21
v 84 22
v 85 16
v 86 0
v 87 0
v 88 16
v 89 0
v 90 18
v 91 16
v 92 16
v 93 0
v 94 0
v 95 0
v 96 0
v 97 0
v 98 0
v 99 18
v 100 0
v 101 17
v 102 0
v 103 0
v 104 0
v 105 0
v 106 22
v 107 23
v 108 22
v 109 22
v 110 22
v 111 0
v 112 0
v 113 0
v 114 0
v 115 0
v 116 0
v 117 23
v 118 0
v 119 0
v 120 26
v 121 27
v 122 26
v 123 0
v 124 26
v 125 23
v 126 26
v 127 26
v 128 17
v 129 17
v 130 17
v 131 25
v 132 24
v 133 23
v 134 22
v 135 21
v 136 20
v 137 19
v 138 18
v 139 17
v 140 23
v 141 22
v 142 21
v 143 20
v 144 17
v 145 26
v 146 26
v 147 26
v 148 26
v 149 0
v 150 0
v 151 20
v 152 20
v 153 0
v 154 22
v 155 0
v 156 22
v 157 0
v 158 0
v 159 0
v 160 0
v 161 0
v 162 26
v 163 27
v 164 26
v 165 26
v 166 24
v 167 25
v 168 25
v 169 0
v 170 25
v 171 0
v 172 25
v 173 26
v 174 27
v 175 26
v 176 27
v 177 27
v 178 28
v 179 28
v 180 27
v 181 26
v 182 26
v 183 21
v 184 21
v 185 21
v 186 21
v 187 0
v 188 0
v 189 0
v 190 26
v 191 25
v 192 27
v 193 24
v 194 28
v 195 28
v 196 29
v 197 28
v 198 28
v 199 29
v 200 27
v 201 26
v 202 26
v 203 0
v 204 28
v 205 25
v 206 25
v 207 27
v 208 24
v 209 0
v 210 22
v 211 23
